# set
set V := C1 C2 C3 C4 C5 C6 C7 C8 C9 C10 ;
set F := F11 F12 F13 F14 F11_1 F11_2 F11_3 F11_4 F12_1 F12_2 F12_3 F12_4 F13_1 F13_2 F13_3 F13_4 F14_1 F14_2 F14_3 F14_4 ;
set D0 := N0;
set Dσ := Nσ;

# param
param Cf := 200;		# ECV fixed cost
param C := 1000;		# ECV max load
param Q := 77.75;		# ECV/BSV battery level
param h := 1;		# ECV consumption

param CB := 60;		# BSV fixed cost
param Qplun := 5;		# BSV max load
param hplun := 1;		# BSV consumption
param W := 155.5;		# BSV battery level

param Cde := 1;		# ECV cost per unit distance
param Cdb := 1;		# BSV cost per unit distance
param lamda := 0;	# battery swap time
param n := 10;		# number of customers
param g := 1.17;	# recharging rate
param Cr := 100;		# recharging cost
param Ct := 10;		# travel cost
param Cs ;		# battery swap cost

param m :=
N0 0
C1 26
C2 20
C3 13
C4 3
C5 20
C6 20
C7 20
C8 9
C9 3
C10 20
F11 0
F11_1 0
F11_2 0
F11_3 0
F11_4 0
F12 0
F12_1 0
F12_2 0
F12_3 0
F12_4 0
F13 0
F13_1 0
F13_2 0
F13_3 0
F13_4 0
F14 0
F14_1 0
F14_2 0
F14_3 0
F14_4 0
Nσ 0
;

param e :=
N0 0
C1 382
C2 531
C3 389
C4 870
C5 204
C6 842
C7 50
C8 14
C9 789
C10 393
F11 0
F11_1 0
F11_2 0
F11_3 0
F11_4 0
F12 0
F12_1 0
F12_2 0
F12_3 0
F12_4 0
F13 0
F13_1 0
F13_2 0
F13_3 0
F13_4 0
F14 0
F14_1 0
F14_2 0
F14_3 0
F14_4 0
Nσ 0
;

param l :=
N0 960
C1 862
C2 736
C3 449
C4 930
C5 264
C6 902
C7 530
C8 494
C9 928
C10 502
F11 960
F11_1 960
F11_2 960
F11_3 960
F11_4 960
F12 960
F12_1 960
F12_2 960
F12_3 960
F12_4 960
F13 960
F13_1 960
F13_2 960
F13_3 960
F13_4 960
F14 960
F14_1 960
F14_2 960
F14_3 960
F14_4 960
Nσ 960
;

param s :=
N0 0
C1 10
C2 10
C3 10
C4 10
C5 10
C6 10
C7 10
C8 10
C9 10
C10 10
F11 0
F11_1 0
F11_2 0
F11_3 0
F11_4 0
F12 0
F12_1 0
F12_2 0
F12_3 0
F12_4 0
F13 0
F13_1 0
F13_2 0
F13_3 0
F13_4 0
F14 0
F14_1 0
F14_2 0
F14_3 0
F14_4 0
Nσ 0
;

param d : N0 C1 C2 C3 C4 C5 C6 C7 C8 C9 C10 F11 F11_1 F11_2 F11_3 F11_4 F12 F12_1 F12_2 F12_3 F12_4 F13 F13_1 F13_2 F13_3 F13_4 F14 F14_1 F14_2 F14_3 F14_4 Nσ  :=
N0 0.0000 15.5242 38.0789 38.2099 19.2354 39.2938 47.1699 50.2892 14.7648 21.0950 33.3017 0.0000 0.0000 0.0000 0.0000 0.0000 37.0540 37.0540 37.0540 37.0540 37.0540 36.2353 36.2353 36.2353 36.2353 36.2353 37.2022 37.2022 37.2022 37.2022 37.2022 0.0000
C1 15.5242 0.0000 31.0000 52.4309 27.2947 54.8179 59.4643 38.0789 30.0832 6.3246 42.5441 15.5242 15.5242 15.5242 15.5242 15.5242 22.0907 22.0907 22.0907 22.0907 22.0907 28.0713 28.0713 28.0713 28.0713 28.0713 51.9711 51.9711 51.9711 51.9711 51.9711 15.5242
C2 38.0789 31.0000 0.0000 74.6324 30.0000 69.5270 85.0000 59.9083 50.4777 33.5410 38.3275 38.0789 38.0789 38.0789 38.0789 38.0789 39.6611 39.6611 39.6611 39.6611 39.6611 3.6056 3.6056 3.6056 3.6056 3.6056 72.6223 72.6223 72.6223 72.6223 72.6223 38.0789
C3 38.2099 52.4309 74.6324 0.0000 47.0106 18.8680 14.3178 76.7919 24.2074 56.4358 51.3517 38.2099 38.2099 38.2099 38.2099 38.2099 70.7743 70.7743 70.7743 70.7743 70.7743 73.4098 73.4098 73.4098 73.4098 73.4098 4.4721 4.4721 4.4721 4.4721 4.4721 38.2099
C4 19.2354 27.2947 30.0000 47.0106 0.0000 39.6232 59.2030 65.3682 24.3311 33.5410 15.2643 19.2354 19.2354 19.2354 19.2354 19.2354 48.3839 48.3839 48.3839 48.3839 48.3839 30.0167 30.0167 30.0167 30.0167 30.0167 44.2945 44.2945 44.2945 44.2945 44.2945 19.2354
C5 39.2938 54.8179 69.5270 18.8680 39.6232 0.0000 32.6956 86.1452 25.1794 60.2080 38.4838 39.2938 39.2938 39.2938 39.2938 39.2938 75.9539 75.9539 75.9539 75.9539 75.9539 69.2026 69.2026 69.2026 69.2026 69.2026 14.4222 14.4222 14.4222 14.4222 14.4222 39.2938
C6 47.1699 59.4643 85.0000 14.3178 59.2030 32.6956 0.0000 77.1622 35.1141 62.2896 65.0692 47.1699 47.1699 47.1699 47.1699 47.1699 74.8866 74.8866 74.8866 74.8866 74.8866 83.3547 83.3547 83.3547 83.3547 83.3547 18.6815 18.6815 18.6815 18.6815 18.6815 47.1699
C7 50.2892 38.0789 59.9083 76.7919 65.3682 86.1452 77.1622 0.0000 61.5224 31.9061 80.6226 50.2892 50.2892 50.2892 50.2892 50.2892 20.2485 20.2485 20.2485 20.2485 20.2485 56.3028 56.3028 56.3028 56.3028 56.3028 78.3135 78.3135 78.3135 78.3135 78.3135 50.2892
C8 14.7648 30.0832 50.4777 24.2074 24.3311 25.1794 35.1141 61.5224 0.0000 35.1710 33.2415 14.7648 14.7648 14.7648 14.7648 14.7648 50.8035 50.8035 50.8035 50.8035 50.8035 49.2037 49.2037 49.2037 49.2037 49.2037 22.6716 22.6716 22.6716 22.6716 22.6716 14.7648
C9 21.0950 6.3246 33.5410 56.4358 33.5410 60.2080 62.2896 31.9061 35.1710 0.0000 48.7647 21.0950 21.0950 21.0950 21.0950 21.0950 16.0000 16.0000 16.0000 16.0000 16.0000 30.2655 30.2655 30.2655 30.2655 30.2655 56.3649 56.3649 56.3649 56.3649 56.3649 21.0950
C10 33.3017 42.5441 38.3275 51.3517 15.2643 38.4838 65.0692 80.6226 33.2415 48.7647 0.0000 33.3017 33.3017 33.3017 33.3017 33.3017 63.3246 63.3246 63.3246 63.3246 63.3246 39.6232 39.6232 39.6232 39.6232 39.6232 47.6760 47.6760 47.6760 47.6760 47.6760 33.3017
F11 0.0000 15.5242 38.0789 38.2099 19.2354 39.2938 47.1699 50.2892 14.7648 21.0950 33.3017 0.0000 0.0000 0.0000 0.0000 0.0000 37.0540 37.0540 37.0540 37.0540 37.0540 36.2353 36.2353 36.2353 36.2353 36.2353 37.2022 37.2022 37.2022 37.2022 37.2022 0.0000
F11_1 0.0000 15.5242 38.0789 38.2099 19.2354 39.2938 47.1699 50.2892 14.7648 21.0950 33.3017 0.0000 0.0000 0.0000 0.0000 0.0000 37.0540 37.0540 37.0540 37.0540 37.0540 36.2353 36.2353 36.2353 36.2353 36.2353 37.2022 37.2022 37.2022 37.2022 37.2022 0.0000
F11_2 0.0000 15.5242 38.0789 38.2099 19.2354 39.2938 47.1699 50.2892 14.7648 21.0950 33.3017 0.0000 0.0000 0.0000 0.0000 0.0000 37.0540 37.0540 37.0540 37.0540 37.0540 36.2353 36.2353 36.2353 36.2353 36.2353 37.2022 37.2022 37.2022 37.2022 37.2022 0.0000
F11_3 0.0000 15.5242 38.0789 38.2099 19.2354 39.2938 47.1699 50.2892 14.7648 21.0950 33.3017 0.0000 0.0000 0.0000 0.0000 0.0000 37.0540 37.0540 37.0540 37.0540 37.0540 36.2353 36.2353 36.2353 36.2353 36.2353 37.2022 37.2022 37.2022 37.2022 37.2022 0.0000
F11_4 0.0000 15.5242 38.0789 38.2099 19.2354 39.2938 47.1699 50.2892 14.7648 21.0950 33.3017 0.0000 0.0000 0.0000 0.0000 0.0000 37.0540 37.0540 37.0540 37.0540 37.0540 36.2353 36.2353 36.2353 36.2353 36.2353 37.2022 37.2022 37.2022 37.2022 37.2022 0.0000
F12 37.0540 22.0907 39.6611 70.7743 48.3839 75.9539 74.8866 20.2485 50.8035 16.0000 63.3246 37.0540 37.0540 37.0540 37.0540 37.0540 0.0000 0.0000 0.0000 0.0000 0.0000 36.0555 36.0555 36.0555 36.0555 36.0555 71.1688 71.1688 71.1688 71.1688 71.1688 37.0540
F12_1 37.0540 22.0907 39.6611 70.7743 48.3839 75.9539 74.8866 20.2485 50.8035 16.0000 63.3246 37.0540 37.0540 37.0540 37.0540 37.0540 0.0000 0.0000 0.0000 0.0000 0.0000 36.0555 36.0555 36.0555 36.0555 36.0555 71.1688 71.1688 71.1688 71.1688 71.1688 37.0540
F12_2 37.0540 22.0907 39.6611 70.7743 48.3839 75.9539 74.8866 20.2485 50.8035 16.0000 63.3246 37.0540 37.0540 37.0540 37.0540 37.0540 0.0000 0.0000 0.0000 0.0000 0.0000 36.0555 36.0555 36.0555 36.0555 36.0555 71.1688 71.1688 71.1688 71.1688 71.1688 37.0540
F12_3 37.0540 22.0907 39.6611 70.7743 48.3839 75.9539 74.8866 20.2485 50.8035 16.0000 63.3246 37.0540 37.0540 37.0540 37.0540 37.0540 0.0000 0.0000 0.0000 0.0000 0.0000 36.0555 36.0555 36.0555 36.0555 36.0555 71.1688 71.1688 71.1688 71.1688 71.1688 37.0540
F12_4 37.0540 22.0907 39.6611 70.7743 48.3839 75.9539 74.8866 20.2485 50.8035 16.0000 63.3246 37.0540 37.0540 37.0540 37.0540 37.0540 0.0000 0.0000 0.0000 0.0000 0.0000 36.0555 36.0555 36.0555 36.0555 36.0555 71.1688 71.1688 71.1688 71.1688 71.1688 37.0540
F13 36.2353 28.0713 3.6056 73.4098 30.0167 69.2026 83.3547 56.3028 49.2037 30.2655 39.6232 36.2353 36.2353 36.2353 36.2353 36.2353 36.0555 36.0555 36.0555 36.0555 36.0555 0.0000 0.0000 0.0000 0.0000 0.0000 71.5891 71.5891 71.5891 71.5891 71.5891 36.2353
F13_1 36.2353 28.0713 3.6056 73.4098 30.0167 69.2026 83.3547 56.3028 49.2037 30.2655 39.6232 36.2353 36.2353 36.2353 36.2353 36.2353 36.0555 36.0555 36.0555 36.0555 36.0555 0.0000 0.0000 0.0000 0.0000 0.0000 71.5891 71.5891 71.5891 71.5891 71.5891 36.2353
F13_2 36.2353 28.0713 3.6056 73.4098 30.0167 69.2026 83.3547 56.3028 49.2037 30.2655 39.6232 36.2353 36.2353 36.2353 36.2353 36.2353 36.0555 36.0555 36.0555 36.0555 36.0555 0.0000 0.0000 0.0000 0.0000 0.0000 71.5891 71.5891 71.5891 71.5891 71.5891 36.2353
F13_3 36.2353 28.0713 3.6056 73.4098 30.0167 69.2026 83.3547 56.3028 49.2037 30.2655 39.6232 36.2353 36.2353 36.2353 36.2353 36.2353 36.0555 36.0555 36.0555 36.0555 36.0555 0.0000 0.0000 0.0000 0.0000 0.0000 71.5891 71.5891 71.5891 71.5891 71.5891 36.2353
F13_4 36.2353 28.0713 3.6056 73.4098 30.0167 69.2026 83.3547 56.3028 49.2037 30.2655 39.6232 36.2353 36.2353 36.2353 36.2353 36.2353 36.0555 36.0555 36.0555 36.0555 36.0555 0.0000 0.0000 0.0000 0.0000 0.0000 71.5891 71.5891 71.5891 71.5891 71.5891 36.2353
F14 37.2022 51.9711 72.6223 4.4721 44.2945 14.4222 18.6815 78.3135 22.6716 56.3649 47.6760 37.2022 37.2022 37.2022 37.2022 37.2022 71.1688 71.1688 71.1688 71.1688 71.1688 71.5891 71.5891 71.5891 71.5891 71.5891 0.0000 0.0000 0.0000 0.0000 0.0000 37.2022
F14_1 37.2022 51.9711 72.6223 4.4721 44.2945 14.4222 18.6815 78.3135 22.6716 56.3649 47.6760 37.2022 37.2022 37.2022 37.2022 37.2022 71.1688 71.1688 71.1688 71.1688 71.1688 71.5891 71.5891 71.5891 71.5891 71.5891 0.0000 0.0000 0.0000 0.0000 0.0000 37.2022
F14_2 37.2022 51.9711 72.6223 4.4721 44.2945 14.4222 18.6815 78.3135 22.6716 56.3649 47.6760 37.2022 37.2022 37.2022 37.2022 37.2022 71.1688 71.1688 71.1688 71.1688 71.1688 71.5891 71.5891 71.5891 71.5891 71.5891 0.0000 0.0000 0.0000 0.0000 0.0000 37.2022
F14_3 37.2022 51.9711 72.6223 4.4721 44.2945 14.4222 18.6815 78.3135 22.6716 56.3649 47.6760 37.2022 37.2022 37.2022 37.2022 37.2022 71.1688 71.1688 71.1688 71.1688 71.1688 71.5891 71.5891 71.5891 71.5891 71.5891 0.0000 0.0000 0.0000 0.0000 0.0000 37.2022
F14_4 37.2022 51.9711 72.6223 4.4721 44.2945 14.4222 18.6815 78.3135 22.6716 56.3649 47.6760 37.2022 37.2022 37.2022 37.2022 37.2022 71.1688 71.1688 71.1688 71.1688 71.1688 71.5891 71.5891 71.5891 71.5891 71.5891 0.0000 0.0000 0.0000 0.0000 0.0000 37.2022
Nσ 0.0000 15.5242 38.0789 38.2099 19.2354 39.2938 47.1699 50.2892 14.7648 21.0950 33.3017 0.0000 0.0000 0.0000 0.0000 0.0000 37.0540 37.0540 37.0540 37.0540 37.0540 36.2353 36.2353 36.2353 36.2353 36.2353 37.2022 37.2022 37.2022 37.2022 37.2022 0.0000
;

param t : N0 C1 C2 C3 C4 C5 C6 C7 C8 C9 C10 F11 F11_1 F11_2 F11_3 F11_4 F12 F12_1 F12_2 F12_3 F12_4 F13 F13_1 F13_2 F13_3 F13_4 F14 F14_1 F14_2 F14_3 F14_4 Nσ  :=
N0 0.0000 15.5242 38.0789 38.2099 19.2354 39.2938 47.1699 50.2892 14.7648 21.0950 33.3017 0.0000 0.0000 0.0000 0.0000 0.0000 37.0540 37.0540 37.0540 37.0540 37.0540 36.2353 36.2353 36.2353 36.2353 36.2353 37.2022 37.2022 37.2022 37.2022 37.2022 0.0000
C1 15.5242 0.0000 31.0000 52.4309 27.2947 54.8179 59.4643 38.0789 30.0832 6.3246 42.5441 15.5242 15.5242 15.5242 15.5242 15.5242 22.0907 22.0907 22.0907 22.0907 22.0907 28.0713 28.0713 28.0713 28.0713 28.0713 51.9711 51.9711 51.9711 51.9711 51.9711 15.5242
C2 38.0789 31.0000 0.0000 74.6324 30.0000 69.5270 85.0000 59.9083 50.4777 33.5410 38.3275 38.0789 38.0789 38.0789 38.0789 38.0789 39.6611 39.6611 39.6611 39.6611 39.6611 3.6056 3.6056 3.6056 3.6056 3.6056 72.6223 72.6223 72.6223 72.6223 72.6223 38.0789
C3 38.2099 52.4309 74.6324 0.0000 47.0106 18.8680 14.3178 76.7919 24.2074 56.4358 51.3517 38.2099 38.2099 38.2099 38.2099 38.2099 70.7743 70.7743 70.7743 70.7743 70.7743 73.4098 73.4098 73.4098 73.4098 73.4098 4.4721 4.4721 4.4721 4.4721 4.4721 38.2099
C4 19.2354 27.2947 30.0000 47.0106 0.0000 39.6232 59.2030 65.3682 24.3311 33.5410 15.2643 19.2354 19.2354 19.2354 19.2354 19.2354 48.3839 48.3839 48.3839 48.3839 48.3839 30.0167 30.0167 30.0167 30.0167 30.0167 44.2945 44.2945 44.2945 44.2945 44.2945 19.2354
C5 39.2938 54.8179 69.5270 18.8680 39.6232 0.0000 32.6956 86.1452 25.1794 60.2080 38.4838 39.2938 39.2938 39.2938 39.2938 39.2938 75.9539 75.9539 75.9539 75.9539 75.9539 69.2026 69.2026 69.2026 69.2026 69.2026 14.4222 14.4222 14.4222 14.4222 14.4222 39.2938
C6 47.1699 59.4643 85.0000 14.3178 59.2030 32.6956 0.0000 77.1622 35.1141 62.2896 65.0692 47.1699 47.1699 47.1699 47.1699 47.1699 74.8866 74.8866 74.8866 74.8866 74.8866 83.3547 83.3547 83.3547 83.3547 83.3547 18.6815 18.6815 18.6815 18.6815 18.6815 47.1699
C7 50.2892 38.0789 59.9083 76.7919 65.3682 86.1452 77.1622 0.0000 61.5224 31.9061 80.6226 50.2892 50.2892 50.2892 50.2892 50.2892 20.2485 20.2485 20.2485 20.2485 20.2485 56.3028 56.3028 56.3028 56.3028 56.3028 78.3135 78.3135 78.3135 78.3135 78.3135 50.2892
C8 14.7648 30.0832 50.4777 24.2074 24.3311 25.1794 35.1141 61.5224 0.0000 35.1710 33.2415 14.7648 14.7648 14.7648 14.7648 14.7648 50.8035 50.8035 50.8035 50.8035 50.8035 49.2037 49.2037 49.2037 49.2037 49.2037 22.6716 22.6716 22.6716 22.6716 22.6716 14.7648
C9 21.0950 6.3246 33.5410 56.4358 33.5410 60.2080 62.2896 31.9061 35.1710 0.0000 48.7647 21.0950 21.0950 21.0950 21.0950 21.0950 16.0000 16.0000 16.0000 16.0000 16.0000 30.2655 30.2655 30.2655 30.2655 30.2655 56.3649 56.3649 56.3649 56.3649 56.3649 21.0950
C10 33.3017 42.5441 38.3275 51.3517 15.2643 38.4838 65.0692 80.6226 33.2415 48.7647 0.0000 33.3017 33.3017 33.3017 33.3017 33.3017 63.3246 63.3246 63.3246 63.3246 63.3246 39.6232 39.6232 39.6232 39.6232 39.6232 47.6760 47.6760 47.6760 47.6760 47.6760 33.3017
F11 0.0000 15.5242 38.0789 38.2099 19.2354 39.2938 47.1699 50.2892 14.7648 21.0950 33.3017 0.0000 0.0000 0.0000 0.0000 0.0000 37.0540 37.0540 37.0540 37.0540 37.0540 36.2353 36.2353 36.2353 36.2353 36.2353 37.2022 37.2022 37.2022 37.2022 37.2022 0.0000
F11_1 0.0000 15.5242 38.0789 38.2099 19.2354 39.2938 47.1699 50.2892 14.7648 21.0950 33.3017 0.0000 0.0000 0.0000 0.0000 0.0000 37.0540 37.0540 37.0540 37.0540 37.0540 36.2353 36.2353 36.2353 36.2353 36.2353 37.2022 37.2022 37.2022 37.2022 37.2022 0.0000
F11_2 0.0000 15.5242 38.0789 38.2099 19.2354 39.2938 47.1699 50.2892 14.7648 21.0950 33.3017 0.0000 0.0000 0.0000 0.0000 0.0000 37.0540 37.0540 37.0540 37.0540 37.0540 36.2353 36.2353 36.2353 36.2353 36.2353 37.2022 37.2022 37.2022 37.2022 37.2022 0.0000
F11_3 0.0000 15.5242 38.0789 38.2099 19.2354 39.2938 47.1699 50.2892 14.7648 21.0950 33.3017 0.0000 0.0000 0.0000 0.0000 0.0000 37.0540 37.0540 37.0540 37.0540 37.0540 36.2353 36.2353 36.2353 36.2353 36.2353 37.2022 37.2022 37.2022 37.2022 37.2022 0.0000
F11_4 0.0000 15.5242 38.0789 38.2099 19.2354 39.2938 47.1699 50.2892 14.7648 21.0950 33.3017 0.0000 0.0000 0.0000 0.0000 0.0000 37.0540 37.0540 37.0540 37.0540 37.0540 36.2353 36.2353 36.2353 36.2353 36.2353 37.2022 37.2022 37.2022 37.2022 37.2022 0.0000
F12 37.0540 22.0907 39.6611 70.7743 48.3839 75.9539 74.8866 20.2485 50.8035 16.0000 63.3246 37.0540 37.0540 37.0540 37.0540 37.0540 0.0000 0.0000 0.0000 0.0000 0.0000 36.0555 36.0555 36.0555 36.0555 36.0555 71.1688 71.1688 71.1688 71.1688 71.1688 37.0540
F12_1 37.0540 22.0907 39.6611 70.7743 48.3839 75.9539 74.8866 20.2485 50.8035 16.0000 63.3246 37.0540 37.0540 37.0540 37.0540 37.0540 0.0000 0.0000 0.0000 0.0000 0.0000 36.0555 36.0555 36.0555 36.0555 36.0555 71.1688 71.1688 71.1688 71.1688 71.1688 37.0540
F12_2 37.0540 22.0907 39.6611 70.7743 48.3839 75.9539 74.8866 20.2485 50.8035 16.0000 63.3246 37.0540 37.0540 37.0540 37.0540 37.0540 0.0000 0.0000 0.0000 0.0000 0.0000 36.0555 36.0555 36.0555 36.0555 36.0555 71.1688 71.1688 71.1688 71.1688 71.1688 37.0540
F12_3 37.0540 22.0907 39.6611 70.7743 48.3839 75.9539 74.8866 20.2485 50.8035 16.0000 63.3246 37.0540 37.0540 37.0540 37.0540 37.0540 0.0000 0.0000 0.0000 0.0000 0.0000 36.0555 36.0555 36.0555 36.0555 36.0555 71.1688 71.1688 71.1688 71.1688 71.1688 37.0540
F12_4 37.0540 22.0907 39.6611 70.7743 48.3839 75.9539 74.8866 20.2485 50.8035 16.0000 63.3246 37.0540 37.0540 37.0540 37.0540 37.0540 0.0000 0.0000 0.0000 0.0000 0.0000 36.0555 36.0555 36.0555 36.0555 36.0555 71.1688 71.1688 71.1688 71.1688 71.1688 37.0540
F13 36.2353 28.0713 3.6056 73.4098 30.0167 69.2026 83.3547 56.3028 49.2037 30.2655 39.6232 36.2353 36.2353 36.2353 36.2353 36.2353 36.0555 36.0555 36.0555 36.0555 36.0555 0.0000 0.0000 0.0000 0.0000 0.0000 71.5891 71.5891 71.5891 71.5891 71.5891 36.2353
F13_1 36.2353 28.0713 3.6056 73.4098 30.0167 69.2026 83.3547 56.3028 49.2037 30.2655 39.6232 36.2353 36.2353 36.2353 36.2353 36.2353 36.0555 36.0555 36.0555 36.0555 36.0555 0.0000 0.0000 0.0000 0.0000 0.0000 71.5891 71.5891 71.5891 71.5891 71.5891 36.2353
F13_2 36.2353 28.0713 3.6056 73.4098 30.0167 69.2026 83.3547 56.3028 49.2037 30.2655 39.6232 36.2353 36.2353 36.2353 36.2353 36.2353 36.0555 36.0555 36.0555 36.0555 36.0555 0.0000 0.0000 0.0000 0.0000 0.0000 71.5891 71.5891 71.5891 71.5891 71.5891 36.2353
F13_3 36.2353 28.0713 3.6056 73.4098 30.0167 69.2026 83.3547 56.3028 49.2037 30.2655 39.6232 36.2353 36.2353 36.2353 36.2353 36.2353 36.0555 36.0555 36.0555 36.0555 36.0555 0.0000 0.0000 0.0000 0.0000 0.0000 71.5891 71.5891 71.5891 71.5891 71.5891 36.2353
F13_4 36.2353 28.0713 3.6056 73.4098 30.0167 69.2026 83.3547 56.3028 49.2037 30.2655 39.6232 36.2353 36.2353 36.2353 36.2353 36.2353 36.0555 36.0555 36.0555 36.0555 36.0555 0.0000 0.0000 0.0000 0.0000 0.0000 71.5891 71.5891 71.5891 71.5891 71.5891 36.2353
F14 37.2022 51.9711 72.6223 4.4721 44.2945 14.4222 18.6815 78.3135 22.6716 56.3649 47.6760 37.2022 37.2022 37.2022 37.2022 37.2022 71.1688 71.1688 71.1688 71.1688 71.1688 71.5891 71.5891 71.5891 71.5891 71.5891 0.0000 0.0000 0.0000 0.0000 0.0000 37.2022
F14_1 37.2022 51.9711 72.6223 4.4721 44.2945 14.4222 18.6815 78.3135 22.6716 56.3649 47.6760 37.2022 37.2022 37.2022 37.2022 37.2022 71.1688 71.1688 71.1688 71.1688 71.1688 71.5891 71.5891 71.5891 71.5891 71.5891 0.0000 0.0000 0.0000 0.0000 0.0000 37.2022
F14_2 37.2022 51.9711 72.6223 4.4721 44.2945 14.4222 18.6815 78.3135 22.6716 56.3649 47.6760 37.2022 37.2022 37.2022 37.2022 37.2022 71.1688 71.1688 71.1688 71.1688 71.1688 71.5891 71.5891 71.5891 71.5891 71.5891 0.0000 0.0000 0.0000 0.0000 0.0000 37.2022
F14_3 37.2022 51.9711 72.6223 4.4721 44.2945 14.4222 18.6815 78.3135 22.6716 56.3649 47.6760 37.2022 37.2022 37.2022 37.2022 37.2022 71.1688 71.1688 71.1688 71.1688 71.1688 71.5891 71.5891 71.5891 71.5891 71.5891 0.0000 0.0000 0.0000 0.0000 0.0000 37.2022
F14_4 37.2022 51.9711 72.6223 4.4721 44.2945 14.4222 18.6815 78.3135 22.6716 56.3649 47.6760 37.2022 37.2022 37.2022 37.2022 37.2022 71.1688 71.1688 71.1688 71.1688 71.1688 71.5891 71.5891 71.5891 71.5891 71.5891 0.0000 0.0000 0.0000 0.0000 0.0000 37.2022
Nσ 0.0000 15.5242 38.0789 38.2099 19.2354 39.2938 47.1699 50.2892 14.7648 21.0950 33.3017 0.0000 0.0000 0.0000 0.0000 0.0000 37.0540 37.0540 37.0540 37.0540 37.0540 36.2353 36.2353 36.2353 36.2353 36.2353 37.2022 37.2022 37.2022 37.2022 37.2022 0.0000
;
